Ag212
1.0
23.112000 0.000000 0.000000
-11.556000 20.015579 0.000000
0.000000 0.000000 17.076600
Ag
212
Selective dynamics
direct
0.084956 0.039553 0.528770 T T T Ag
0.043599 0.082071 0.387747 T T T Ag
0.209661 0.038895 0.528717 T T T Ag
0.167783 0.080492 0.386590 T T T Ag
0.334686 0.039124 0.528017 T T T Ag
0.291772 0.079453 0.385917 T T T Ag
0.459313 0.039131 0.528377 T T T Ag
0.417610 0.080125 0.385169 T T T Ag
0.584866 0.039790 0.529291 T T T Ag
0.542926 0.080335 0.386711 T T T Ag
0.084392 0.164365 0.529994 T T T Ag
0.042507 0.206206 0.386836 T T T Ag
0.125403 0.124421 0.672122 F F F Ag
0.208826 0.163514 0.529169 T T T Ag
0.166343 0.204992 0.387805 T T T Ag
0.250490 0.124511 0.672243 F F F Ag
0.334036 0.163483 0.528597 T T T Ag
0.290807 0.204297 0.388027 T T T Ag
0.375426 0.124758 0.671864 F F F Ag
0.459449 0.163532 0.529358 T T T Ag
0.415279 0.202581 0.389116 T T T Ag
0.500195 0.124595 0.672348 F F F Ag
0.584717 0.163477 0.528986 T T T Ag
0.543642 0.203795 0.388607 T T T Ag
0.083882 0.288989 0.530456 T T T Ag
0.042164 0.330484 0.386686 T T T Ag
0.125203 0.249423 0.672657 F F F Ag
0.208382 0.288497 0.529696 T T T Ag
0.165421 0.329556 0.388235 T T T Ag
0.250273 0.249553 0.671865 F F F Ag
0.333425 0.288232 0.531108 T T T Ag
0.289208 0.328683 0.389650 T T T Ag
0.375321 0.249527 0.672093 F F F Ag
0.458854 0.288022 0.532436 T T T Ag
0.414784 0.326699 0.392875 T T T Ag
0.500265 0.249499 0.672234 F F F Ag
0.585045 0.288255 0.531895 T T T Ag
0.541947 0.328166 0.395747 T T T Ag
0.084072 0.413675 0.530418 T T T Ag
0.042719 0.455073 0.387188 T T T Ag
0.125140 0.374503 0.672722 F F F Ag
0.208236 0.413427 0.529947 T T T Ag
0.165529 0.454622 0.388203 T T T Ag
0.249817 0.374414 0.672643 F F F Ag
0.332957 0.413218 0.533688 T T T Ag
0.289094 0.453985 0.390955 T T T Ag
0.377898 0.374622 0.260002 T T T Ag
0.375114 0.374599 0.673940 F F F Ag
0.458564 0.412834 0.534536 T T T Ag
0.415361 0.454018 0.397380 T T T Ag
0.500414 0.372047 0.257159 T T T Ag
0.500187 0.374384 0.673702 F F F Ag
0.584583 0.413064 0.534327 T T T Ag
0.542168 0.454867 0.397586 T T T Ag
0.084686 0.538979 0.530229 T T T Ag
0.043912 0.580387 0.388205 T T T Ag
0.125278 0.499557 0.672109 F F F Ag
0.208593 0.538665 0.529692 T T T Ag
0.166788 0.580417 0.388326 T T T Ag
0.249865 0.499240 0.672662 F F F Ag
0.332969 0.538350 0.533602 T T T Ag
0.289575 0.579487 0.389511 T T T Ag
0.377198 0.498289 0.259396 T T T Ag
0.375041 0.499370 0.674307 F F F Ag
0.458650 0.538673 0.535020 T T T Ag
0.415480 0.580205 0.397543 T T T Ag
0.501906 0.497820 0.257041 T T T Ag
0.500244 0.499509 0.673766 F F F Ag
0.584589 0.538969 0.535579 T T T Ag
0.542227 0.580845 0.397517 T T T Ag
0.710535 0.040574 0.529595 T T T Ag
0.668881 0.082266 0.387878 T T T Ag
0.835594 0.040844 0.530032 T T T Ag
0.794465 0.083491 0.388073 T T T Ag
0.960243 0.040370 0.529572 T T T Ag
0.919357 0.083418 0.387959 T T T Ag
0.625019 0.124452 0.672307 F F F Ag
0.710274 0.164409 0.530335 T T T Ag
0.669086 0.205162 0.388358 T T T Ag
0.750359 0.124685 0.672625 F F F Ag
0.835460 0.165104 0.530616 T T T Ag
0.794148 0.206351 0.387091 T T T Ag
0.875365 0.124710 0.673009 F F F Ag
0.959880 0.165017 0.530525 T T T Ag
0.918625 0.206840 0.386771 T T T Ag
0.000407 0.124626 0.672749 F F F Ag
0.625373 0.249602 0.671766 F F F Ag
0.710396 0.288557 0.529665 T T T Ag
0.669804 0.329048 0.389948 T T T Ag
0.750352 0.249507 0.672007 F F F Ag
0.835389 0.288972 0.530783 T T T Ag
0.794522 0.329670 0.388614 T T T Ag
0.875228 0.249476 0.673744 F F F Ag
0.959797 0.289211 0.531027 T T T Ag
0.918676 0.330411 0.387129 T T T Ag
0.000330 0.249511 0.674082 F F F Ag
0.625329 0.372980 0.258269 T T T Ag
0.625479 0.374530 0.673662 F F F Ag
0.710641 0.413286 0.533460 T T T Ag
0.668789 0.454020 0.397296 T T T Ag
0.750581 0.374396 0.673010 F F F Ag
0.835598 0.413384 0.530392 T T T Ag
0.795126 0.453925 0.391068 T T T Ag
0.875457 0.374345 0.672845 F F F Ag
0.960122 0.413649 0.530778 T T T Ag
0.919587 0.454792 0.388806 T T T Ag
0.000416 0.374597 0.673464 F F F Ag
0.625734 0.497655 0.257318 T T T Ag
0.625363 0.499556 0.673850 F F F Ag
0.710381 0.538488 0.535303 T T T Ag
0.668504 0.580407 0.397500 T T T Ag
0.749847 0.496899 0.259660 T T T Ag
0.750309 0.499394 0.674571 F F F Ag
0.835550 0.538194 0.533959 T T T Ag
0.794917 0.580020 0.397971 T T T Ag
0.502004 0.249825 0.259283 T T T Ag
0.960447 0.538626 0.530195 T T T Ag
0.920288 0.579397 0.390012 T T T Ag
0.000497 0.499483 0.672470 F F F Ag
0.085334 0.664303 0.529201 T T T Ag
0.044589 0.705679 0.387534 T T T Ag
0.125395 0.624791 0.671477 F F F Ag
0.209330 0.664362 0.529361 T T T Ag
0.168353 0.706291 0.386896 T T T Ag
0.250335 0.624508 0.671885 F F F Ag
0.333746 0.664032 0.530671 T T T Ag
0.291569 0.705799 0.387821 T T T Ag
0.378606 0.622966 0.260093 T T T Ag
0.375183 0.624351 0.673801 F F F Ag
0.458637 0.664550 0.534618 T T T Ag
0.415423 0.707753 0.392267 T T T Ag
0.502076 0.622883 0.257138 T T T Ag
0.500341 0.624591 0.673888 F F F Ag
0.584789 0.664706 0.535594 T T T Ag
0.542548 0.706925 0.398157 T T T Ag
0.085322 0.789313 0.528289 T T T Ag
0.045243 0.831766 0.387416 T T T Ag
0.125235 0.749609 0.672031 F F F Ag
0.210002 0.789624 0.529237 T T T Ag
0.168933 0.831167 0.385649 T T T Ag
0.250452 0.749724 0.672301 F F F Ag
0.334399 0.789509 0.528484 T T T Ag
0.292612 0.831283 0.385885 T T T Ag
0.375315 0.749572 0.671882 F F F Ag
0.459329 0.789910 0.530735 T T T Ag
0.416991 0.832182 0.387683 T T T Ag
0.501849 0.747779 0.258726 T T T Ag
0.500177 0.749614 0.673640 F F F Ag
0.584627 0.790652 0.534662 T T T Ag
0.541785 0.833881 0.392081 T T T Ag
0.085339 0.914621 0.527954 T T T Ag
0.044247 0.957192 0.387242 T T T Ag
0.125094 0.874414 0.671800 F F F Ag
0.209906 0.914289 0.528765 T T T Ag
0.168619 0.955931 0.385447 T T T Ag
0.250265 0.874465 0.673582 F F F Ag
0.334617 0.914326 0.528927 T T T Ag
0.292999 0.955725 0.384701 T T T Ag
0.375405 0.874433 0.671841 F F F Ag
0.459621 0.914863 0.528316 T T T Ag
0.417615 0.956398 0.385455 T T T Ag
0.500265 0.874497 0.671733 F F F Ag
0.585127 0.915499 0.530573 T T T Ag
0.543297 0.957457 0.387511 T T T Ag
0.125303 0.999347 0.672001 F F F Ag
0.250309 0.999565 0.673441 F F F Ag
0.375283 0.999505 0.673446 F F F Ag
0.500084 0.999316 0.672287 F F F Ag
0.626398 0.622498 0.257762 T T T Ag
0.625280 0.624563 0.672815 F F F Ag
0.710212 0.664555 0.535488 T T T Ag
0.668643 0.706853 0.397225 T T T Ag
0.750750 0.622401 0.257002 T T T Ag
0.750366 0.624499 0.673561 F F F Ag
0.836365 0.664603 0.534777 T T T Ag
0.794464 0.706477 0.397854 T T T Ag
0.873582 0.621325 0.260368 T T T Ag
0.875242 0.624463 0.673985 F F F Ag
0.960593 0.663847 0.530811 T T T Ag
0.922321 0.707207 0.392265 T T T Ag
0.000316 0.624681 0.672130 F F F Ag
0.626486 0.747128 0.256933 T T T Ag
0.625290 0.749547 0.673869 F F F Ag
0.710448 0.790534 0.534838 T T T Ag
0.669088 0.833789 0.397340 T T T Ag
0.751019 0.746784 0.256530 T T T Ag
0.750285 0.749541 0.673877 F F F Ag
0.836189 0.790322 0.534424 T T T Ag
0.795104 0.833564 0.397241 T T T Ag
0.876034 0.747096 0.258620 T T T Ag
0.875438 0.749568 0.673593 F F F Ag
0.960955 0.789931 0.530731 T T T Ag
0.922350 0.833462 0.391918 T T T Ag
0.000367 0.749576 0.671598 F F F Ag
0.626907 0.870659 0.259504 T T T Ag
0.625483 0.874705 0.673969 F F F Ag
0.710743 0.916138 0.533585 T T T Ag
0.669696 0.959506 0.389251 T T T Ag
0.751337 0.871783 0.258823 T T T Ag
0.750432 0.874817 0.674318 F F F Ag
0.835570 0.916009 0.533611 T T T Ag
0.795136 0.959859 0.390742 T T T Ag
0.874343 0.870320 0.259346 T T T Ag
0.875298 0.874763 0.673669 F F F Ag
0.960375 0.915261 0.530397 T T T Ag
0.920091 0.959311 0.389116 T T T Ag
0.000288 0.874512 0.671941 F F F Ag
0.625277 0.999502 0.671653 F F F Ag
0.750714 0.000057 0.672699 F F F Ag
0.875451 0.000043 0.672710 F F F Ag
0.000277 0.999538 0.671787 F F F Ag
0.875361 0.499180 0.673664 F F F Ag
