Ag212
1.0
23.112000 0.000000 0.000000
-11.556000 20.015579 0.000000
0.000000 0.000000 17.076600
Ag
212
Selective dynamics
direct
0.084153 0.041779 0.529716 T T T Ag
0.042823 0.084277 0.388373 T T T Ag
0.208653 0.041035 0.529825 T T T Ag
0.167168 0.082708 0.387614 T T T Ag
0.333402 0.040864 0.529931 T T T Ag
0.291246 0.081772 0.386700 T T T Ag
0.458331 0.041065 0.529850 T T T Ag
0.416118 0.081540 0.386705 T T T Ag
0.583570 0.041661 0.529587 T T T Ag
0.541355 0.082375 0.387107 T T T Ag
0.083429 0.166449 0.530492 T T T Ag
0.041653 0.208273 0.387051 T T T Ag
0.125403 0.124421 0.672122 F F F Ag
0.208030 0.165686 0.529793 T T T Ag
0.165642 0.207097 0.388229 T T T Ag
0.250490 0.124511 0.672243 F F F Ag
0.332909 0.165454 0.529087 T T T Ag
0.290211 0.206285 0.388166 T T T Ag
0.375426 0.124758 0.671864 F F F Ag
0.458292 0.165385 0.529358 T T T Ag
0.415377 0.205262 0.388682 T T T Ag
0.500195 0.124595 0.672348 F F F Ag
0.583647 0.165519 0.529185 T T T Ag
0.541097 0.205551 0.388505 T T T Ag
0.082881 0.291087 0.530410 T T T Ag
0.041298 0.332439 0.386420 T T T Ag
0.125203 0.249423 0.672657 F F F Ag
0.207294 0.290654 0.529762 T T T Ag
0.164563 0.331598 0.388047 T T T Ag
0.250273 0.249553 0.671865 F F F Ag
0.332373 0.290443 0.531089 T T T Ag
0.288372 0.330666 0.389439 T T T Ag
0.375321 0.249527 0.672093 F F F Ag
0.457909 0.290040 0.531391 T T T Ag
0.413933 0.328308 0.392574 T T T Ag
0.500265 0.249499 0.672234 F F F Ag
0.583635 0.290277 0.531188 T T T Ag
0.540007 0.328412 0.392441 T T T Ag
0.082865 0.415655 0.530130 T T T Ag
0.041728 0.457180 0.386694 T T T Ag
0.125140 0.374503 0.672722 F F F Ag
0.207119 0.415511 0.529864 T T T Ag
0.164587 0.456706 0.388157 T T T Ag
0.249817 0.374414 0.672643 F F F Ag
0.331901 0.415377 0.533338 T T T Ag
0.288096 0.456057 0.390615 T T T Ag
0.377672 0.376481 0.260039 T T T Ag
0.375114 0.374599 0.673940 F F F Ag
0.457498 0.414849 0.534342 T T T Ag
0.414375 0.455976 0.397265 T T T Ag
0.500872 0.374599 0.258787 T T T Ag
0.500187 0.374384 0.673702 F F F Ag
0.583003 0.414615 0.534481 T T T Ag
0.541126 0.456268 0.397440 T T T Ag
0.083478 0.540867 0.529981 T T T Ag
0.042992 0.582533 0.387976 T T T Ag
0.125278 0.499557 0.672109 F F F Ag
0.207433 0.540765 0.529581 T T T Ag
0.165790 0.582508 0.388118 T T T Ag
0.249865 0.499240 0.672662 F F F Ag
0.331774 0.540418 0.533285 T T T Ag
0.288547 0.581601 0.389358 T T T Ag
0.376288 0.500062 0.259121 T T T Ag
0.375041 0.499370 0.674307 F F F Ag
0.457321 0.540730 0.534363 T T T Ag
0.414167 0.582199 0.397058 T T T Ag
0.501069 0.499942 0.256289 T T T Ag
0.500244 0.499509 0.673766 F F F Ag
0.583456 0.540783 0.534434 T T T Ag
0.540960 0.582490 0.396335 T T T Ag
0.709133 0.042385 0.529705 T T T Ag
0.667368 0.083970 0.387909 T T T Ag
0.834311 0.042823 0.529942 T T T Ag
0.793099 0.085153 0.388137 T T T Ag
0.959225 0.042474 0.529851 T T T Ag
0.918292 0.085362 0.388236 T T T Ag
0.625019 0.124452 0.672307 F F F Ag
0.708880 0.166217 0.529964 T T T Ag
0.667347 0.206804 0.387826 T T T Ag
0.750359 0.124685 0.672625 F F F Ag
0.834237 0.166853 0.530499 T T T Ag
0.792858 0.207849 0.387207 T T T Ag
0.875365 0.124710 0.673009 F F F Ag
0.958829 0.166960 0.530507 T T T Ag
0.917546 0.208679 0.386630 T T T Ag
0.000407 0.124626 0.672749 F F F Ag
0.625373 0.249602 0.671766 F F F Ag
0.709415 0.290510 0.530913 T T T Ag
0.666082 0.328957 0.392568 T T T Ag
0.750352 0.249507 0.672007 F F F Ag
0.834309 0.290849 0.529777 T T T Ag
0.793673 0.331231 0.388431 T T T Ag
0.875228 0.249476 0.673744 F F F Ag
0.958767 0.291151 0.530507 T T T Ag
0.917822 0.332293 0.386623 T T T Ag
0.000330 0.249511 0.674082 F F F Ag
0.625216 0.374960 0.258226 T T T Ag
0.625479 0.374530 0.673662 F F F Ag
0.709482 0.415220 0.533755 T T T Ag
0.667095 0.456185 0.397664 T T T Ag
0.750581 0.374396 0.673010 F F F Ag
0.834599 0.415326 0.531596 T T T Ag
0.795267 0.457448 0.393656 T T T Ag
0.875457 0.374345 0.672845 F F F Ag
0.958898 0.415543 0.529862 T T T Ag
0.918379 0.456724 0.388088 T T T Ag
0.000416 0.374597 0.673464 F F F Ag
0.625356 0.499560 0.256835 T T T Ag
0.625363 0.499556 0.673850 F F F Ag
0.709342 0.540842 0.534655 T T T Ag
0.667466 0.582295 0.396256 T T T Ag
0.750716 0.499359 0.257811 T T T Ag
0.750309 0.499394 0.674571 F F F Ag
0.834591 0.540454 0.533678 T T T Ag
0.793654 0.582087 0.397038 T T T Ag
0.748303 0.375076 0.259915 T T T Ag
0.959186 0.540561 0.529740 T T T Ag
0.919786 0.582216 0.389900 T T T Ag
0.000497 0.499483 0.672470 F F F Ag
0.084247 0.666234 0.529425 T T T Ag
0.043747 0.708089 0.387919 T T T Ag
0.125395 0.624791 0.671477 F F F Ag
0.208191 0.666294 0.529501 T T T Ag
0.167254 0.708408 0.387044 T T T Ag
0.250335 0.624508 0.671885 F F F Ag
0.332545 0.666020 0.530714 T T T Ag
0.290407 0.707911 0.387745 T T T Ag
0.377365 0.624515 0.259358 T T T Ag
0.375183 0.624351 0.673801 F F F Ag
0.457489 0.666550 0.534104 T T T Ag
0.414175 0.709510 0.391927 T T T Ag
0.500905 0.624740 0.255731 T T T Ag
0.500341 0.624591 0.673888 F F F Ag
0.583457 0.666513 0.534419 T T T Ag
0.541145 0.708618 0.397277 T T T Ag
0.084301 0.791358 0.528792 T T T Ag
0.044523 0.834266 0.388062 T T T Ag
0.125235 0.749609 0.672031 F F F Ag
0.208833 0.791631 0.529686 T T T Ag
0.168000 0.833466 0.386313 T T T Ag
0.250452 0.749724 0.672301 F F F Ag
0.333203 0.791397 0.528878 T T T Ag
0.291504 0.833316 0.386184 T T T Ag
0.375315 0.749572 0.671882 F F F Ag
0.458025 0.791737 0.530737 T T T Ag
0.415672 0.834117 0.387791 T T T Ag
0.500222 0.749309 0.257989 T T T Ag
0.500177 0.749614 0.673640 F F F Ag
0.583186 0.792337 0.534161 T T T Ag
0.540276 0.835570 0.391906 T T T Ag
0.084307 0.916748 0.528863 T T T Ag
0.043497 0.959515 0.388124 T T T Ag
0.125094 0.874414 0.671800 F F F Ag
0.208744 0.916264 0.529897 T T T Ag
0.167904 0.958373 0.386281 T T T Ag
0.250265 0.874465 0.673582 F F F Ag
0.333509 0.916271 0.529721 T T T Ag
0.291850 0.957784 0.386037 T T T Ag
0.375405 0.874433 0.671841 F F F Ag
0.458453 0.916663 0.528822 T T T Ag
0.416367 0.958257 0.386185 T T T Ag
0.500265 0.874497 0.671733 F F F Ag
0.583760 0.917216 0.530597 T T T Ag
0.541934 0.959333 0.387719 T T T Ag
0.125303 0.999347 0.672001 F F F Ag
0.250309 0.999565 0.673441 F F F Ag
0.375283 0.999505 0.673446 F F F Ag
0.500084 0.999316 0.672287 F F F Ag
0.625304 0.624394 0.256775 T T T Ag
0.625280 0.624563 0.672815 F F F Ag
0.708928 0.666350 0.534309 T T T Ag
0.667250 0.708644 0.396332 T T T Ag
0.749929 0.624101 0.256619 T T T Ag
0.750366 0.624499 0.673561 F F F Ag
0.835137 0.666545 0.534262 T T T Ag
0.793469 0.708815 0.397584 T T T Ag
0.873608 0.624589 0.260007 T T T Ag
0.875242 0.624463 0.673985 F F F Ag
0.959601 0.666063 0.531140 T T T Ag
0.921626 0.709761 0.392231 T T T Ag
0.000316 0.624681 0.672130 F F F Ag
0.624906 0.748825 0.256029 T T T Ag
0.625290 0.749547 0.673869 F F F Ag
0.709027 0.792278 0.534249 T T T Ag
0.667502 0.835500 0.396971 T T T Ag
0.749888 0.748735 0.256552 T T T Ag
0.750285 0.749541 0.673877 F F F Ag
0.835010 0.792471 0.534429 T T T Ag
0.793829 0.835683 0.397337 T T T Ag
0.874930 0.749261 0.258680 T T T Ag
0.875438 0.749568 0.673593 F F F Ag
0.959829 0.791995 0.530931 T T T Ag
0.921463 0.835754 0.392233 T T T Ag
0.000367 0.749576 0.671598 F F F Ag
0.625057 0.872256 0.259316 T T T Ag
0.625483 0.874705 0.673969 F F F Ag
0.709420 0.917944 0.533268 T T T Ag
0.668247 0.961211 0.389218 T T T Ag
0.749610 0.873531 0.258987 T T T Ag
0.750432 0.874817 0.674318 F F F Ag
0.834475 0.918160 0.533441 T T T Ag
0.793930 0.961780 0.390601 T T T Ag
0.873122 0.872587 0.260048 T T T Ag
0.875298 0.874763 0.673669 F F F Ag
0.959398 0.917359 0.530874 T T T Ag
0.919158 0.961531 0.389638 T T T Ag
0.000288 0.874512 0.671941 F F F Ag
0.625277 0.999502 0.671653 F F F Ag
0.750714 0.000057 0.672699 F F F Ag
0.875451 0.000043 0.672710 F F F Ag
0.000277 0.999538 0.671787 F F F Ag
0.875361 0.499180 0.673664 F F F Ag
