ASRBA
1.0
18.907900 0.000000 0.000000
-9.453420 16.372948 0.000000
0.000000 0.000000 12.000000
C F P
72 6 1
direct
0.014848 0.014997 0.250296
0.088756 0.088841 0.250028
0.154022 0.153841 0.249962
0.363860 0.363728 0.251471
0.290190 0.289619 0.251063
0.225003 0.224571 0.250344
0.439556 0.364007 0.249882
0.439805 0.290246 0.249451
0.439729 0.225089 0.249628
0.439514 0.015102 0.249580
0.439702 0.089082 0.249486
0.439694 0.154200 0.249657
0.363204 0.439011 0.253813
0.289132 0.438201 0.258277
0.223961 0.437963 0.260827
0.015281 0.439551 0.254843
0.088679 0.438962 0.259126
0.153355 0.438210 0.261198
0.514971 0.014881 0.249545
0.588968 0.088703 0.249711
0.654089 0.153855 0.249823
0.863904 0.363892 0.249608
0.790031 0.289959 0.249013
0.724942 0.224776 0.249517
0.939562 0.364060 0.251385
0.939444 0.290102 0.250500
0.939438 0.224981 0.249854
0.939238 0.015006 0.250317
0.939245 0.088892 0.250001
0.939393 0.154098 0.249705
0.863850 0.439439 0.249565
0.789919 0.439423 0.248991
0.724786 0.439440 0.249280
0.514970 0.439739 0.249530
0.588988 0.439930 0.249273
0.653971 0.439612 0.249403
0.015257 0.515236 0.254240
0.088670 0.589266 0.257128
0.153412 0.654652 0.257973
0.363353 0.863716 0.251946
0.289305 0.790360 0.255201
0.224086 0.725449 0.257205
0.438929 0.863458 0.250781
0.439042 0.789762 0.251453
0.438881 0.724596 0.251472
0.438705 0.514904 0.251896
0.438723 0.588677 0.252412
0.438761 0.653783 0.251834
0.363872 0.939601 0.250343
0.290158 0.939957 0.250020
0.225030 0.939938 0.249758
0.014864 0.939367 0.250321
0.088804 0.939476 0.250089
0.154075 0.939754 0.249811
0.514410 0.515061 0.249855
0.588257 0.589022 0.249004
0.653556 0.653967 0.249017
0.863608 0.863728 0.250320
0.789734 0.789810 0.249939
0.724543 0.724733 0.249380
0.939251 0.863730 0.250259
0.939198 0.789818 0.249831
0.939157 0.724660 0.249442
0.939508 0.514952 0.250988
0.939343 0.588769 0.250050
0.939178 0.653807 0.249518
0.863607 0.939358 0.250389
0.789744 0.939412 0.250161
0.724646 0.939480 0.249802
0.514562 0.939082 0.249599
0.588468 0.939099 0.249263
0.653730 0.939391 0.249483
0.175114 0.557433 0.051116
0.220781 0.640349 -0.105759
0.214268 0.514006 -0.106209
0.301330 0.677087 0.053666
0.294872 0.551069 0.053198
0.340633 0.633851 -0.103940
0.257869 0.595672 -0.027255
