ASRBA
1.0
18.907900 0.000000 0.000000
-9.453420 16.372948 0.000000
0.000000 0.000000 12.000000
C F P
72 6 1
direct
0.015270 0.015496 0.250714
0.089080 0.089441 0.250630
0.154014 0.154776 0.250556
0.363846 0.364707 0.247296
0.289788 0.290978 0.248948
0.224764 0.225756 0.250039
0.439107 0.364023 0.250290
0.438665 0.289874 0.253256
0.438704 0.224735 0.254351
0.439434 0.015111 0.249117
0.439215 0.088920 0.252831
0.438892 0.153911 0.254211
0.364155 0.440433 0.242135
0.290557 0.440756 0.239207
0.225818 0.441447 0.238452
0.015661 0.440374 0.242420
0.089577 0.440680 0.239446
0.155035 0.441427 0.238546
0.515061 0.015167 0.249061
0.589029 0.089016 0.252774
0.654321 0.154023 0.254144
0.864299 0.364039 0.250338
0.790562 0.289917 0.253208
0.725348 0.224826 0.254289
0.940216 0.364671 0.247384
0.940496 0.290912 0.248912
0.940313 0.225697 0.249968
0.939660 0.015492 0.250717
0.939771 0.089422 0.250628
0.940122 0.154735 0.250518
0.863894 0.439435 0.249801
0.789802 0.439042 0.252499
0.724508 0.438723 0.253618
0.514929 0.439404 0.249698
0.588621 0.438996 0.252492
0.653609 0.438707 0.253616
0.015217 0.515856 0.240788
0.088661 0.589778 0.234613
0.154002 0.654536 0.230865
0.363829 0.863826 0.237597
0.290031 0.790218 0.231984
0.224939 0.725152 0.229871
0.439547 0.863884 0.237393
0.439818 0.790325 0.231411
0.439824 0.725252 0.229039
0.440099 0.515889 0.240336
0.440627 0.589830 0.233905
0.440095 0.654612 0.230003
0.363960 0.939411 0.244518
0.290074 0.939425 0.246632
0.225059 0.939613 0.248662
0.015311 0.939869 0.250742
0.089180 0.939844 0.250635
0.154238 0.939693 0.250035
0.515315 0.515184 0.245467
0.589470 0.588837 0.246500
0.654592 0.653953 0.248167
0.864028 0.864281 0.250597
0.790218 0.790329 0.250194
0.725297 0.724981 0.249462
0.939683 0.864288 0.250585
0.939544 0.790339 0.250167
0.939153 0.725008 0.249483
0.939318 0.515195 0.245760
0.938854 0.588869 0.246750
0.938848 0.653990 0.248294
0.863995 0.939868 0.250737
0.790109 0.939864 0.250556
0.724942 0.939797 0.249854
0.514944 0.939528 0.244314
0.588886 0.939630 0.246343
0.654071 0.939784 0.248408
0.236912 0.534235 0.606004
0.197314 0.577595 0.448552
0.319884 0.576817 0.448714
0.237580 0.657695 0.608646
0.360460 0.657057 0.608634
0.320698 0.700317 0.451455
0.278788 0.617277 0.529517
