Ga48 Bi16 As34 H32
1.0
15.914428 0.000000 0.000000
0.000000 15.914428 0.000000
0.000000 0.000000 16.879799
Ga Bi As H
48 16 34 32
Selective dynamics
direct
0.006244 0.126316 0.583629 T T T Ga
0.005508 0.624287 0.584183 T T T Ga
0.008246 0.373835 0.582477 T T T Ga
0.007787 0.875941 0.586166 T T T Ga
0.505704 0.124711 0.582680 T T T Ga
0.501648 0.629073 0.580496 T T T Ga
0.503188 0.374570 0.586736 T T T Ga
0.504486 0.876927 0.583952 T T T Ga
0.243501 0.124591 0.583701 T T T Ga
0.242905 0.626138 0.583130 T T T Ga
0.245536 0.374773 0.584121 T T T Ga
0.243514 0.875685 0.583096 T T T Ga
0.743105 0.125207 0.585288 T T T Ga
0.741486 0.630044 0.578292 T T T Ga
0.752306 0.357427 0.584060 T T T Ga
0.747134 0.890921 0.579236 T T T Ga
0.124951 0.000289 0.413789 T T T Ga
0.125144 0.500138 0.413748 T T T Ga
0.125134 0.250167 0.413636 T T T Ga
0.124963 0.749998 0.413888 T T T Ga
0.625064 -0.000185 0.414236 T T T Ga
0.625006 0.497776 0.413691 T T T Ga
0.624920 0.252372 0.415659 T T T Ga
0.624823 0.749064 0.413222 T T T Ga
0.374802 0.000394 0.418911 T T T Ga
0.374732 0.499501 0.418950 T T T Ga
0.374776 0.249375 0.418651 T T T Ga
0.374527 0.751056 0.418293 T T T Ga
0.875272 0.000993 0.419169 T T T Ga
0.874829 0.500424 0.419182 T T T Ga
0.875609 0.248161 0.417944 T T T Ga
0.875420 0.750192 0.418222 T T T Ga
0.000000 0.125000 0.250000 F F F Ga
0.000000 0.625000 0.250000 F F F Ga
0.000000 0.375000 0.250000 F F F Ga
0.000000 0.875000 0.250000 F F F Ga
0.500000 0.125000 0.250000 F F F Ga
0.500000 0.625000 0.250000 F F F Ga
0.500000 0.375000 0.250000 F F F Ga
0.500000 0.875000 0.250000 F F F Ga
0.250000 0.125000 0.250000 F F F Ga
0.250000 0.625000 0.250000 F F F Ga
0.250000 0.375000 0.250000 F F F Ga
0.250000 0.875000 0.250000 F F F Ga
0.750000 0.125000 0.250000 F F F Ga
0.750000 0.625000 0.250000 F F F Ga
0.750000 0.375000 0.250000 F F F Ga
0.750000 0.875000 0.250000 F F F Ga
0.029661 0.002432 0.697081 T T T Bi
0.030819 0.498380 0.696088 T T T Bi
0.031211 0.251008 0.696968 T T T Bi
0.030002 0.748653 0.696689 T T T Bi
0.531353 0.000022 0.697452 T T T Bi
0.480585 0.506581 0.693637 T T T Bi
0.528445 0.247507 0.697644 T T T Bi
0.519747 0.749729 0.697230 T T T Bi
0.219920 -0.000211 0.696691 T T T Bi
0.223060 0.500935 0.695855 T T T Bi
0.221566 0.249434 0.696458 T T T Bi
0.220523 0.750824 0.696212 T T T Bi
0.720433 -0.000169 0.698305 T T T Bi
0.749349 0.590934 0.790592 T T T Bi
0.717466 0.246715 0.701085 T T T Bi
0.708655 0.749558 0.692499 T T T Bi
0.639629 0.469609 0.744054 T T T As
0.754891 0.498897 0.653976 T T T As
0.124847 0.125294 0.494510 T T T As
0.123808 0.624986 0.494682 T T T As
0.127160 0.375098 0.494471 T T T As
0.124625 0.875219 0.494546 T T T As
0.625224 0.125215 0.494558 T T T As
0.621175 0.623639 0.492656 T T T As
0.626659 0.376990 0.500808 T T T As
0.624679 0.873164 0.495789 T T T As
0.374468 0.124671 0.506046 T T T As
0.372097 0.626166 0.503313 T T T As
0.375234 0.373802 0.504799 T T T As
0.374493 0.875684 0.505639 T T T As
0.874482 0.125050 0.506976 T T T As
0.875210 0.626621 0.504797 T T T As
0.878929 0.372768 0.503146 T T T As
0.878139 0.875121 0.505420 T T T As
0.000000 0.000000 0.333333 F F F As
0.000000 0.500000 0.333333 F F F As
0.000000 0.250000 0.333333 F F F As
0.000000 0.750000 0.333333 F F F As
0.500000 0.000000 0.333333 F F F As
0.500000 0.500000 0.333333 F F F As
0.500000 0.250000 0.333333 F F F As
0.500000 0.750000 0.333333 F F F As
0.250000 0.000000 0.333333 F F F As
0.250000 0.500000 0.333333 F F F As
0.250000 0.250000 0.333333 F F F As
0.250000 0.750000 0.333333 F F F As
0.750000 0.000000 0.333333 F F F As
0.750000 0.500000 0.333333 F F F As
0.750000 0.250000 0.333333 F F F As
0.750000 0.750000 0.333333 F F F As
0.176361 0.125000 0.190371 F F F H
0.176361 0.625000 0.190371 F F F H
0.176361 0.375000 0.190371 F F F H
0.176361 0.875000 0.190371 F F F H
0.676360 0.125000 0.190371 F F F H
0.676360 0.625000 0.190371 F F F H
0.676360 0.375000 0.190371 F F F H
0.676360 0.875000 0.190371 F F F H
0.426361 0.125000 0.190371 F F F H
0.426361 0.625000 0.190371 F F F H
0.426361 0.375000 0.190371 F F F H
0.426361 0.875000 0.190371 F F F H
0.926360 0.125000 0.190371 F F F H
0.926360 0.625000 0.190371 F F F H
0.926360 0.375000 0.190371 F F F H
0.926360 0.875000 0.190371 F F F H
0.073639 0.125000 0.190371 F F F H
0.073639 0.625000 0.190371 F F F H
0.073639 0.375000 0.190371 F F F H
0.073639 0.875000 0.190371 F F F H
0.573639 0.125000 0.190371 F F F H
0.573639 0.625000 0.190371 F F F H
0.573639 0.375000 0.190371 F F F H
0.573639 0.875000 0.190371 F F F H
0.323639 0.125000 0.190371 F F F H
0.323639 0.625000 0.190371 F F F H
0.323639 0.375000 0.190371 F F F H
0.323639 0.875000 0.190371 F F F H
0.823639 0.125000 0.190371 F F F H
0.823639 0.625000 0.190371 F F F H
0.823639 0.375000 0.190371 F F F H
0.823639 0.875000 0.190371 F F F H
