Ga48 Bi16 As34 H32
1.0
15.914428 0.000000 0.000000
0.000000 15.914428 0.000000
0.000000 0.000000 16.879799
Ga Bi As H
48 16 34 32
Selective dynamics
direct
0.008055 0.123717 0.586639 T T T Ga
0.006352 0.624899 0.583291 T T T Ga
0.006819 0.375916 0.584060 T T T Ga
0.007194 0.873363 0.584852 T T T Ga
0.504457 0.100339 0.581050 T T T Ga
0.504005 0.628339 0.583332 T T T Ga
0.501280 0.388369 0.580922 T T T Ga
0.505603 0.869219 0.581262 T T T Ga
0.241924 0.123715 0.586636 T T T Ga
0.243646 0.624912 0.583265 T T T Ga
0.243169 0.375915 0.584059 T T T Ga
0.242798 0.873360 0.584847 T T T Ga
0.745510 0.100372 0.581075 T T T Ga
0.745987 0.628324 0.583338 T T T Ga
0.748711 0.388356 0.580929 T T T Ga
0.744402 0.869205 0.581276 T T T Ga
0.124999 -0.000210 0.414311 T T T Ga
0.124999 0.499859 0.413617 T T T Ga
0.125000 0.249949 0.414373 T T T Ga
0.124998 0.749688 0.413714 T T T Ga
0.625000 0.000817 0.413142 T T T Ga
0.624999 0.501610 0.412198 T T T Ga
0.625001 0.253752 0.415405 T T T Ga
0.625001 0.748760 0.414008 T T T Ga
0.374681 -0.001111 0.419356 T T T Ga
0.374528 0.500316 0.418569 T T T Ga
0.375080 0.249019 0.418917 T T T Ga
0.374597 0.750034 0.418228 T T T Ga
0.875310 -0.001110 0.419367 T T T Ga
0.875475 0.500329 0.418573 T T T Ga
0.874921 0.249031 0.418925 T T T Ga
0.875403 0.750032 0.418251 T T T Ga
0.000000 0.125000 0.250000 F F F Ga
0.000000 0.625000 0.250000 F F F Ga
0.000000 0.375000 0.250000 F F F Ga
0.000000 0.875000 0.250000 F F F Ga
0.500000 0.125000 0.250000 F F F Ga
0.500000 0.625000 0.250000 F F F Ga
0.500000 0.375000 0.250000 F F F Ga
0.500000 0.875000 0.250000 F F F Ga
0.250000 0.125000 0.250000 F F F Ga
0.250000 0.625000 0.250000 F F F Ga
0.250000 0.375000 0.250000 F F F Ga
0.250000 0.875000 0.250000 F F F Ga
0.750000 0.125000 0.250000 F F F Ga
0.750000 0.625000 0.250000 F F F Ga
0.750000 0.375000 0.250000 F F F Ga
0.750000 0.875000 0.250000 F F F Ga
0.029942 -0.002331 0.697361 T T T Bi
0.028285 0.500919 0.696449 T T T Bi
0.029889 0.251438 0.696299 T T T Bi
0.029892 0.748039 0.696871 T T T Bi
0.530493 -0.010574 0.699589 T T T Bi
0.476815 0.504255 0.694896 T T T Bi
0.530881 0.252488 0.677552 T T T Bi
0.530746 0.749963 0.697925 T T T Bi
0.220063 -0.002342 0.697350 T T T Bi
0.221721 0.500934 0.696458 T T T Bi
0.220094 0.251438 0.696298 T T T Bi
0.220102 0.748041 0.696878 T T T Bi
0.719478 -0.010561 0.699602 T T T Bi
0.773103 0.504228 0.694955 T T T Bi
0.719340 0.252495 0.677651 T T T Bi
0.719251 0.749968 0.697918 T T T Bi
0.624996 0.327235 0.796287 T T T As
0.624948 0.478247 0.775154 T T T As
0.124997 0.124775 0.495011 T T T As
0.124983 0.624654 0.494291 T T T As
0.124988 0.375372 0.494578 T T T As
0.124995 0.874407 0.494566 T T T As
0.624994 0.125911 0.496204 T T T As
0.624997 0.623993 0.496684 T T T As
0.625001 0.380631 0.496527 T T T As
0.625009 0.874748 0.493330 T T T As
0.373027 0.123885 0.507263 T T T As
0.374029 0.625808 0.504691 T T T As
0.372258 0.374428 0.503444 T T T As
0.373681 0.873764 0.506170 T T T As
0.876946 0.123888 0.507277 T T T As
0.875975 0.625795 0.504720 T T T As
0.877739 0.374444 0.503445 T T T As
0.876311 0.873771 0.506183 T T T As
0.000000 0.000000 0.333333 F F F As
0.000000 0.500000 0.333333 F F F As
0.000000 0.250000 0.333333 F F F As
0.000000 0.750000 0.333333 F F F As
0.500000 0.000000 0.333333 F F F As
0.500000 0.500000 0.333333 F F F As
0.500000 0.250000 0.333333 F F F As
0.500000 0.750000 0.333333 F F F As
0.250000 0.000000 0.333333 F F F As
0.250000 0.500000 0.333333 F F F As
0.250000 0.250000 0.333333 F F F As
0.250000 0.750000 0.333333 F F F As
0.750000 0.000000 0.333333 F F F As
0.750000 0.500000 0.333333 F F F As
0.750000 0.250000 0.333333 F F F As
0.750000 0.750000 0.333333 F F F As
0.176361 0.125000 0.190371 F F F H
0.176361 0.625000 0.190371 F F F H
0.176361 0.375000 0.190371 F F F H
0.176361 0.875000 0.190371 F F F H
0.676360 0.125000 0.190371 F F F H
0.676360 0.625000 0.190371 F F F H
0.676360 0.375000 0.190371 F F F H
0.676360 0.875000 0.190371 F F F H
0.426361 0.125000 0.190371 F F F H
0.426361 0.625000 0.190371 F F F H
0.426361 0.375000 0.190371 F F F H
0.426361 0.875000 0.190371 F F F H
0.926360 0.125000 0.190371 F F F H
0.926360 0.625000 0.190371 F F F H
0.926360 0.375000 0.190371 F F F H
0.926360 0.875000 0.190371 F F F H
0.073639 0.125000 0.190371 F F F H
0.073639 0.625000 0.190371 F F F H
0.073639 0.375000 0.190371 F F F H
0.073639 0.875000 0.190371 F F F H
0.573639 0.125000 0.190371 F F F H
0.573639 0.625000 0.190371 F F F H
0.573639 0.375000 0.190371 F F F H
0.573639 0.875000 0.190371 F F F H
0.323639 0.125000 0.190371 F F F H
0.323639 0.625000 0.190371 F F F H
0.323639 0.375000 0.190371 F F F H
0.323639 0.875000 0.190371 F F F H
0.823639 0.125000 0.190371 F F F H
0.823639 0.625000 0.190371 F F F H
0.823639 0.375000 0.190371 F F F H
0.823639 0.875000 0.190371 F F F H
