Al108 Ag1
1.0
12.133600 0.000000 0.000000
0.000000 12.133600 0.000000
0.000000 0.000000 12.133600
Al Ag
108 1
direct
-0.000722 0.000000 -0.000722 Al
-0.006531 0.161772 0.166667 Al
0.166667 -0.000000 0.166667 Al
0.166667 0.161772 -0.006531 Al
0.334054 0.000000 -0.000722 Al
0.339867 0.161770 0.166667 Al
0.503011 0.000000 0.166666 Al
0.500825 0.165843 -0.001746 Al
0.666667 -0.000000 -0.001407 Al
0.666666 0.163656 0.166666 Al
0.830324 0.000000 0.166666 Al
0.832508 0.165842 -0.001746 Al
-0.001558 0.331777 -0.001558 Al
-0.036567 0.499999 0.166670 Al
0.166670 0.296762 0.166670 Al
0.166670 0.499999 -0.036567 Al
0.334891 0.331775 -0.001561 Al
0.369907 0.499999 0.166670 Al
0.504893 0.326801 0.166667 Al
0.504893 0.500000 -0.006529 Al
0.666666 0.332612 -0.000722 Al
0.666669 0.500000 0.166667 Al
0.828434 0.326795 0.166666 Al
0.828435 0.500000 -0.006536 Al
-0.001558 0.668223 -0.001558 Al
-0.006533 0.838230 0.166667 Al
0.166670 0.703234 0.166670 Al
0.166667 0.838230 -0.006533 Al
0.334890 0.668225 -0.001560 Al
0.339870 0.838232 0.166667 Al
0.504893 0.673198 0.166667 Al
0.500825 0.834157 -0.001746 Al
0.666666 0.667388 -0.000722 Al
0.666666 0.836344 0.166666 Al
0.828434 0.673205 0.166666 Al
0.832508 0.834158 -0.001746 Al
-0.000722 0.000000 0.334054 Al
-0.001746 0.165843 0.500825 Al
0.166666 0.000000 0.503011 Al
0.166667 0.161770 0.339867 Al
0.334055 0.000000 0.334055 Al
0.335078 0.165842 0.500825 Al
0.500182 -0.000000 0.500182 Al
0.500825 0.165842 0.335078 Al
0.666667 -0.000000 0.334740 Al
0.666667 0.166485 0.500182 Al
0.833150 -0.000000 0.500183 Al
0.832508 0.165842 0.335078 Al
-0.001561 0.331775 0.334891 Al
-0.006529 0.500000 0.504893 Al
0.166667 0.326801 0.504893 Al
0.166670 0.499999 0.369907 Al
0.334894 0.331772 0.334894 Al
0.339865 0.500000 0.504894 Al
0.500825 0.331589 0.500825 Al
0.504894 0.500000 0.339865 Al
0.666666 0.332612 0.334054 Al
0.666666 0.500000 0.503011 Al
0.832508 0.331589 0.500826 Al
0.828433 0.500000 0.339872 Al
-0.001560 0.668225 0.334890 Al
-0.001746 0.834157 0.500825 Al
0.166667 0.673198 0.504893 Al
0.166667 0.838232 0.339870 Al
0.334893 0.668228 0.334893 Al
0.335078 0.834158 0.500825 Al
0.500825 0.668411 0.500825 Al
0.500825 0.834158 0.335078 Al
0.666666 0.667388 0.334054 Al
0.666667 0.833516 0.500182 Al
0.832508 0.668411 0.500825 Al
0.832508 0.834158 0.335078 Al
-0.001407 -0.000000 0.666667 Al
-0.001746 0.165842 0.832508 Al
0.166666 0.000000 0.830324 Al
0.166666 0.163656 0.666666 Al
0.334740 -0.000000 0.666667 Al
0.335078 0.165842 0.832508 Al
0.500183 -0.000000 0.833150 Al
0.500182 0.166485 0.666667 Al
0.666667 -0.000000 0.666667 Al
0.666667 0.166484 0.833150 Al
0.833150 -0.000000 0.833150 Al
0.833150 0.166484 0.666667 Al
-0.000722 0.332612 0.666666 Al
-0.006536 0.500000 0.828435 Al
0.166666 0.326795 0.828434 Al
0.166667 0.500000 0.666669 Al
0.334054 0.332612 0.666666 Al
0.339872 0.500000 0.828433 Al
0.500826 0.331589 0.832508 Al
0.503011 0.500000 0.666666 Al
0.666667 0.331927 0.666667 Al
0.666666 0.500000 0.830324 Al
0.832508 0.331588 0.832508 Al
0.830324 0.500000 0.666666 Al
-0.000722 0.667388 0.666666 Al
-0.001746 0.834158 0.832508 Al
0.166666 0.673205 0.828434 Al
0.166666 0.836344 0.666666 Al
0.334054 0.667388 0.666666 Al
0.335078 0.834158 0.832508 Al
0.500825 0.668411 0.832508 Al
0.500182 0.833516 0.666667 Al
0.666668 0.668073 0.666668 Al
0.666667 0.833516 0.833150 Al
0.832508 0.668412 0.832508 Al
0.833150 0.833516 0.666667 Al
0.166650 0.500006 0.166650 Ag
