Al108 Ag1
1.0
12.133600 0.000000 0.000000
0.000000 12.133600 0.000000
0.000000 0.000000 12.133600
Al Ag
108 1
direct
-0.000184 0.000000 -0.000184 Al
-0.000831 0.165836 0.164905 Al
0.165926 -0.000000 0.165926 Al
0.164905 0.165836 -0.000831 Al
0.333333 -0.000000 -0.003016 Al
0.333333 0.161780 0.160155 Al
0.500742 -0.000000 0.165925 Al
0.501763 0.165836 -0.000831 Al
0.666852 0.000000 -0.000184 Al
0.667498 0.165836 0.164905 Al
0.833333 0.000000 0.165254 Al
0.833333 0.166483 -0.000184 Al
-0.000831 0.331572 -0.000831 Al
-0.004885 0.500000 0.160156 Al
0.165091 0.331758 0.165091 Al
0.160156 0.500000 -0.004885 Al
0.333333 0.326822 -0.004884 Al
0.333333 0.500000 0.130112 Al
0.501576 0.331758 0.165092 Al
0.506510 0.500000 -0.004885 Al
0.667498 0.331572 -0.000831 Al
0.671553 0.500000 0.160154 Al
0.833333 0.332592 0.165926 Al
0.833332 0.500000 -0.003016 Al
-0.000831 0.668428 -0.000831 Al
-0.000831 0.834164 0.164905 Al
0.165091 0.668242 0.165091 Al
0.164905 0.834164 -0.000831 Al
0.333333 0.673178 -0.004884 Al
0.333333 0.838220 0.160155 Al
0.501576 0.668242 0.165092 Al
0.501763 0.834164 -0.000831 Al
0.667498 0.668428 -0.000831 Al
0.667498 0.834164 0.164905 Al
0.833333 0.667408 0.165926 Al
0.833333 0.833517 -0.000184 Al
-0.003016 0.000000 0.333333 Al
-0.000831 0.165836 0.501763 Al
0.165925 0.000000 0.500742 Al
0.160155 0.161780 0.333333 Al
0.333333 0.000000 0.333333 Al
0.333333 0.161781 0.506510 Al
0.500742 0.000000 0.500742 Al
0.506510 0.161781 0.333333 Al
0.669682 -0.000000 0.333334 Al
0.667498 0.165836 0.501763 Al
0.833333 -0.000000 0.501414 Al
0.833332 0.163650 0.333334 Al
-0.004884 0.326822 0.333333 Al
-0.004885 0.500000 0.506510 Al
0.165092 0.331758 0.501576 Al
0.130112 0.500000 0.333333 Al
0.333333 0.296791 0.333333 Al
0.333333 0.500000 0.536532 Al
0.501576 0.331759 0.501576 Al
0.536532 0.500000 0.333334 Al
0.671553 0.326820 0.333333 Al
0.671553 0.500000 0.506512 Al
0.833333 0.332592 0.500741 Al
0.833333 0.500000 0.333333 Al
-0.004884 0.673178 0.333333 Al
-0.000831 0.834164 0.501763 Al
0.165092 0.668242 0.501576 Al
0.160155 0.838220 0.333333 Al
0.333333 0.703209 0.333333 Al
0.333333 0.838219 0.506511 Al
0.501576 0.668241 0.501576 Al
0.506511 0.838219 0.333333 Al
0.671553 0.673180 0.333333 Al
0.667498 0.834164 0.501763 Al
0.833333 0.667408 0.500741 Al
0.833332 0.836350 0.333334 Al
-0.000184 -0.000000 0.666852 Al
-0.000184 0.166483 0.833333 Al
0.165254 0.000000 0.833333 Al
0.164905 0.165836 0.667498 Al
0.333334 0.000000 0.669682 Al
0.333334 0.163650 0.833332 Al
0.501414 0.000000 0.833333 Al
0.501763 0.165836 0.667498 Al
0.666852 -0.000000 0.666852 Al
0.666852 0.166483 0.833333 Al
0.833333 -0.000000 0.833333 Al
0.833333 0.166483 0.666852 Al
-0.000831 0.331572 0.667498 Al
-0.003016 0.500000 0.833332 Al
0.165926 0.332592 0.833333 Al
0.160154 0.500000 0.671553 Al
0.333333 0.326820 0.671553 Al
0.333333 0.500000 0.833333 Al
0.500741 0.332592 0.833333 Al
0.506512 0.500000 0.671553 Al
0.667498 0.331573 0.667498 Al
0.669682 0.500000 0.833333 Al
0.833333 0.331921 0.833333 Al
0.833333 0.500000 0.669682 Al
-0.000831 0.668428 0.667498 Al
-0.000184 0.833517 0.833333 Al
0.165926 0.667408 0.833333 Al
0.164905 0.834164 0.667498 Al
0.333333 0.673180 0.671553 Al
0.333334 0.836350 0.833332 Al
0.500741 0.667408 0.833333 Al
0.501763 0.834164 0.667498 Al
0.667498 0.668427 0.667498 Al
0.666852 0.833517 0.833333 Al
0.833333 0.668079 0.833333 Al
0.833333 0.833517 0.666852 Al
0.333345 0.500000 0.333345 Ag
